c This Formular is generated by mcnf
c
c    horn? no 
c    forced? no 
c    mixed sat? no 
c    clause length = 3 
c
p cnf 20  91 
 -9 2 18 0
-20 -13 -14 0
15 -12 8 0
2 9 8 0
11 4 -2 0
9 15 -18 0
8 9 13 0
15 -19 2 0
3 1 17 0
19 -13 -3 0
16 -13 2 0
-11 7 -15 0
12 -7 -14 0
-5 12 14 0
-16 10 -5 0
9 -7 19 0
10 -7 -4 0
-14 -19 10 0
-3 -5 -11 0
3 12 4 0
5 -13 -15 0
%
0

2 89 65 38 76 82 56 12 40 25 72 94 80 72 31 76 31 57 16 55
